75
94 27
97 84
17 19
72 96
86 61
23 32
48 2
6 89
70 47
82 56
42 15
3 18
82 9
50 91
75 74
52 21
48 37
4 14
18 86
90 31
31 81
81 80
18 56
24 74
75 2
2 13
5 52
40 21
28 10
49 61
70 64
71 67
31 96
74 5
46 91
4 6
32 29
13 41
62 85
40 11
21 81
66 16
31 10
26 52
77 73
79 78
96 24
88 16
11 54
23 67
6 14
82 78
72 58
33 67
37 34
66 38
71 48
97 99
45 74
99 17
37 63
47 68
92 52
64 45
71 63
55 76
69 68
96 89
71 31
79 40
48 38
7 26
97 13
52 75
52 75